NAME : kroB100-C-5-1-a__cluster_same_priority_ls__26143.tour
COMMENT : Length = 26143.000
COMMENT : Generated by compare_sota_instances.py for cluster_same_priority_ls
TYPE : TOUR
DIMENSION : 100
TOUR_SECTION
88
23
22
55
24
19
44
92
96
36
41
17
45
18
77
16
2
78
13
63
31
48
51
15
33
82
42
14
64
6
4
83
87
89
50
43
1
21
10
68
86
49
38
20
80
30
75
65
47
37
72
54
52
58
84
7
34
57
94
60
74
66
35
61
27
71
9
25
46
90
95
12
98
32
29
8
99
59
76
97
91
28
3
11
93
85
73
53
70
39
40
67
5
62
69
26
100
56
81
79
-1
EOF
